cost: 1133.33
Route 1:           0   12   80   68   29   24   54   55   25   39   67   23   56    4   26    0
Route 2:           0   27   69   31   88   10   62   11   19   47   48   82    7   52    0
Route 3:           0   28   76   77    3   79   78   34   35   71   65   66   20   30   70    1    0
Route 4:           0   50   33   81    9   51   32   90   63   64   49   36   46    8   45   83   18    0
Route 5:           0   13   97   87   42   57    2   58   53    0
Route 6:           0   94   95   92   37   98  100   91   44   38   14   43   15   41   22   75   74   72   73   21   40    0
Route 7:           0    6   96   99   59   93   85   61   16   86   17   84    5   60   89    0
